array [1..2] of int: X_INTRODUCED_10_ = [1,-1];
var int: X_INTRODUCED_0_;
var int: X_INTRODUCED_1_;
var int: X_INTRODUCED_2_;
var int: X_INTRODUCED_3_;
var int: X_INTRODUCED_4_;
var int: X_INTRODUCED_5_;
var int: X_INTRODUCED_6_;
var int: X_INTRODUCED_7_;
var int: X_INTRODUCED_8_;
var int: X_INTRODUCED_9_;
array [1..10] of var int: arr:: output_array([1..10]) = [X_INTRODUCED_0_,X_INTRODUCED_1_,X_INTRODUCED_2_,X_INTRODUCED_3_,X_INTRODUCED_4_,X_INTRODUCED_5_,X_INTRODUCED_6_,X_INTRODUCED_7_,X_INTRODUCED_8_,X_INTRODUCED_9_];
constraint int_lin_ne(X_INTRODUCED_10_,[X_INTRODUCED_0_,X_INTRODUCED_1_],0);
constraint int_lin_ne(X_INTRODUCED_10_,[X_INTRODUCED_0_,X_INTRODUCED_2_],0);
constraint int_lin_ne(X_INTRODUCED_10_,[X_INTRODUCED_0_,X_INTRODUCED_3_],0);
constraint int_lin_ne(X_INTRODUCED_10_,[X_INTRODUCED_0_,X_INTRODUCED_4_],0);
constraint int_lin_ne(X_INTRODUCED_10_,[X_INTRODUCED_0_,X_INTRODUCED_5_],0);
constraint int_lin_ne(X_INTRODUCED_10_,[X_INTRODUCED_0_,X_INTRODUCED_6_],0);
constraint int_lin_ne(X_INTRODUCED_10_,[X_INTRODUCED_0_,X_INTRODUCED_7_],0);
constraint int_lin_ne(X_INTRODUCED_10_,[X_INTRODUCED_0_,X_INTRODUCED_8_],0);
constraint int_lin_ne(X_INTRODUCED_10_,[X_INTRODUCED_0_,X_INTRODUCED_9_],0);
constraint int_lin_ne(X_INTRODUCED_10_,[X_INTRODUCED_1_,X_INTRODUCED_2_],0);
constraint int_lin_ne(X_INTRODUCED_10_,[X_INTRODUCED_1_,X_INTRODUCED_3_],0);
constraint int_lin_ne(X_INTRODUCED_10_,[X_INTRODUCED_1_,X_INTRODUCED_4_],0);
constraint int_lin_ne(X_INTRODUCED_10_,[X_INTRODUCED_1_,X_INTRODUCED_5_],0);
constraint int_lin_ne(X_INTRODUCED_10_,[X_INTRODUCED_1_,X_INTRODUCED_6_],0);
constraint int_lin_ne(X_INTRODUCED_10_,[X_INTRODUCED_1_,X_INTRODUCED_7_],0);
constraint int_lin_ne(X_INTRODUCED_10_,[X_INTRODUCED_1_,X_INTRODUCED_8_],0);
constraint int_lin_ne(X_INTRODUCED_10_,[X_INTRODUCED_1_,X_INTRODUCED_9_],0);
constraint int_lin_ne(X_INTRODUCED_10_,[X_INTRODUCED_2_,X_INTRODUCED_3_],0);
constraint int_lin_ne(X_INTRODUCED_10_,[X_INTRODUCED_2_,X_INTRODUCED_4_],0);
constraint int_lin_ne(X_INTRODUCED_10_,[X_INTRODUCED_2_,X_INTRODUCED_5_],0);
constraint int_lin_ne(X_INTRODUCED_10_,[X_INTRODUCED_2_,X_INTRODUCED_6_],0);
constraint int_lin_ne(X_INTRODUCED_10_,[X_INTRODUCED_2_,X_INTRODUCED_7_],0);
constraint int_lin_ne(X_INTRODUCED_10_,[X_INTRODUCED_2_,X_INTRODUCED_8_],0);
constraint int_lin_ne(X_INTRODUCED_10_,[X_INTRODUCED_2_,X_INTRODUCED_9_],0);
constraint int_lin_ne(X_INTRODUCED_10_,[X_INTRODUCED_3_,X_INTRODUCED_4_],0);
constraint int_lin_ne(X_INTRODUCED_10_,[X_INTRODUCED_3_,X_INTRODUCED_5_],0);
constraint int_lin_ne(X_INTRODUCED_10_,[X_INTRODUCED_3_,X_INTRODUCED_6_],0);
constraint int_lin_ne(X_INTRODUCED_10_,[X_INTRODUCED_3_,X_INTRODUCED_7_],0);
constraint int_lin_ne(X_INTRODUCED_10_,[X_INTRODUCED_3_,X_INTRODUCED_8_],0);
constraint int_lin_ne(X_INTRODUCED_10_,[X_INTRODUCED_3_,X_INTRODUCED_9_],0);
constraint int_lin_ne(X_INTRODUCED_10_,[X_INTRODUCED_4_,X_INTRODUCED_5_],0);
constraint int_lin_ne(X_INTRODUCED_10_,[X_INTRODUCED_4_,X_INTRODUCED_6_],0);
constraint int_lin_ne(X_INTRODUCED_10_,[X_INTRODUCED_4_,X_INTRODUCED_7_],0);
constraint int_lin_ne(X_INTRODUCED_10_,[X_INTRODUCED_4_,X_INTRODUCED_8_],0);
constraint int_lin_ne(X_INTRODUCED_10_,[X_INTRODUCED_4_,X_INTRODUCED_9_],0);
constraint int_lin_ne(X_INTRODUCED_10_,[X_INTRODUCED_5_,X_INTRODUCED_6_],0);
constraint int_lin_ne(X_INTRODUCED_10_,[X_INTRODUCED_5_,X_INTRODUCED_7_],0);
constraint int_lin_ne(X_INTRODUCED_10_,[X_INTRODUCED_5_,X_INTRODUCED_8_],0);
constraint int_lin_ne(X_INTRODUCED_10_,[X_INTRODUCED_5_,X_INTRODUCED_9_],0);
constraint int_lin_ne(X_INTRODUCED_10_,[X_INTRODUCED_6_,X_INTRODUCED_7_],0);
constraint int_lin_ne(X_INTRODUCED_10_,[X_INTRODUCED_6_,X_INTRODUCED_8_],0);
constraint int_lin_ne(X_INTRODUCED_10_,[X_INTRODUCED_6_,X_INTRODUCED_9_],0);
constraint int_lin_ne(X_INTRODUCED_10_,[X_INTRODUCED_7_,X_INTRODUCED_8_],0);
constraint int_lin_ne(X_INTRODUCED_10_,[X_INTRODUCED_7_,X_INTRODUCED_9_],0);
constraint int_lin_ne(X_INTRODUCED_10_,[X_INTRODUCED_8_,X_INTRODUCED_9_],0);
solve  satisfy;
